; QF_LIA benchmark: system_01
(set-logic QF_LIA)
(declare-fun v0 () Int)
(declare-fun v1 () Int)
(declare-fun v2 () Int)
(assert (<= (+ (* 2 v2)) -16))
(assert (>= (+ (* -1 v0) (* -2 v1) (* -4 v2)) 42))
(assert (= (+ (* -4 v1) (* 3 v2)) 47))
(assert (<= (+ (* -3 v0) (* -2 v1) (* -2 v2)) 44))
(assert (<= (+ (* -1 v0) (* 4 v1) (* 3 v2)) 26))
(assert (<= (+ (* -4 v0) (* -2 v1) (* -1 v2)) -21))
(assert (= (+ (* -3 v0) (* -1 v1) (* -5 v2)) 40))
(assert (= (+ (* -3 v0) (* -1 v1) (* -5 v2)) -44))
(check-sat)
(exit)
